Maximize

x_0_0 + x_0_1 + x_0_2 + x_0_3 + x_0_4 + x_0_5 + x_0_6 + x_1_0 + x_1_1 + x_1_2 + x_1_3 + x_1_4 + x_1_5 + x_1_6 + x_2_0 + x_2_1 + x_2_2 + x_2_3 + x_2_4 + x_2_5 + x_2_6 + x_3_0 + x_3_1 + x_3_2 + x_3_3 + x_3_4 + x_3_5 + x_3_6 + x_4_0 + x_4_1 + x_4_2 + x_4_3 + x_4_4 + x_4_5 + x_4_6 + x_5_0 + x_5_1 + x_5_2 + x_5_3 + x_5_4 + x_5_5 + x_5_6 + x_6_0 + x_6_1 + x_6_2 + x_6_3 + x_6_4 + x_6_5 + x_6_6 + x_7_0 + x_7_1 + x_7_2 + x_7_3 + x_7_4 + x_7_5 + x_7_6 + x_8_0 + x_8_1 + x_8_2 + x_8_3 + x_8_4 + x_8_5 + x_8_6 + x_9_0 + x_9_1 + x_9_2 + x_9_3 + x_9_4 + x_9_5 + x_9_6 + x_10_0 + x_10_1 + x_10_2 + x_10_3 + x_10_4 + x_10_5 + x_10_6 + x_11_0 + x_11_1 + x_11_2 + x_11_3 + x_11_4 + x_11_5 + x_11_6 + x_12_0 + x_12_1 + x_12_2 + x_12_3 + x_12_4 + x_12_5 + x_12_6 + x_13_0 + x_13_1 + x_13_2 + x_13_3 + x_13_4 + x_13_5 + x_13_6 + x_14_0 + x_14_1 + x_14_2 + x_14_3 + x_14_4 + x_14_5 + x_14_6 + x_15_0 + x_15_1 + x_15_2 + x_15_3 + x_15_4 + x_15_5 + x_15_6 + x_16_0 + x_16_1 + x_16_2 + x_16_3 + x_16_4 + x_16_5 + x_16_6 + x_17_0 + x_17_1 + x_17_2 + x_17_3 + x_17_4 + x_17_5 + x_17_6 + x_18_0 + x_18_1 + x_18_2 + x_18_3 + x_18_4 + x_18_5 + x_18_6 + x_19_0 + x_19_1 + x_19_2 + x_19_3 + x_19_4 + x_19_5 + x_19_6 + x_20_0 + x_20_1 + x_20_2 + x_20_3 + x_20_4 + x_20_5 + x_20_6 + x_21_0 + x_21_1 + x_21_2 + x_21_3 + x_21_4 + x_21_5 + x_21_6 + x_22_0 + x_22_1 + x_22_2 + x_22_3 + x_22_4 + x_22_5 + x_22_6 + x_23_0 + x_23_1 + x_23_2 + x_23_3 + x_23_4 + x_23_5 + x_23_6 + x_24_0 + x_24_1 + x_24_2 + x_24_3 + x_24_4 + x_24_5 + x_24_6 + x_25_0 + x_25_1 + x_25_2 + x_25_3 + x_25_4 + x_25_5 + x_25_6 + x_26_0 + x_26_1 + x_26_2 + x_26_3 + x_26_4 + x_26_5 + x_26_6 + x_27_0 + x_27_1 + x_27_2 + x_27_3 + x_27_4 + x_27_5 + x_27_6 + x_28_0 + x_28_1 + x_28_2 + x_28_3 + x_28_4 + x_28_5 + x_28_6 + x_29_0 + x_29_1 + x_29_2 + x_29_3 + x_29_4 + x_29_5 + x_29_6 + x_30_0 + x_30_1 + x_30_2 + x_30_3 + x_30_4 + x_30_5 + x_30_6 + x_31_0 + x_31_1 + x_31_2 + x_31_3 + x_31_4 + x_31_5 + x_31_6 + x_32_0 + x_32_1 + x_32_2 + x_32_3 + x_32_4 + x_32_5 + x_32_6 + x_33_0 + x_33_1 + x_33_2 + x_33_3 + x_33_4 + x_33_5 + x_33_6 + x_34_0 + x_34_1 + x_34_2 + x_34_3 + x_34_4 + x_34_5 + x_34_6 + x_35_0 + x_35_1 + x_35_2 + x_35_3 + x_35_4 + x_35_5 + x_35_6 + x_36_0 + x_36_1 + x_36_2 + x_36_3 + x_36_4 + x_36_5 + x_36_6 + x_37_0 + x_37_1 + x_37_2 + x_37_3 + x_37_4 + x_37_5 + x_37_6 + x_38_0 + x_38_1 + x_38_2 + x_38_3 + x_38_4 + x_38_5 + x_38_6 + x_39_0 + x_39_1 + x_39_2 + x_39_3 + x_39_4 + x_39_5 + x_39_6 + x_40_0 + x_40_1 + x_40_2 + x_40_3 + x_40_4 + x_40_5 + x_40_6 + x_41_0 + x_41_1 + x_41_2 + x_41_3 + x_41_4 + x_41_5 + x_41_6 + x_42_0 + x_42_1 + x_42_2 + x_42_3 + x_42_4 + x_42_5 + x_42_6 + x_43_0 + x_43_1 + x_43_2 + x_43_3 + x_43_4 + x_43_5 + x_43_6 + x_44_0 + x_44_1 + x_44_2 + x_44_3 + x_44_4 + x_44_5 + x_44_6 + x_45_0 + x_45_1 + x_45_2 + x_45_3 + x_45_4 + x_45_5 + x_45_6 + x_46_0 + x_46_1 + x_46_2 + x_46_3 + x_46_4 + x_46_5 + x_46_6 + x_47_0 + x_47_1 + x_47_2 + x_47_3 + x_47_4 + x_47_5 + x_47_6 + x_48_0 + x_48_1 + x_48_2 + x_48_3 + x_48_4 + x_48_5 + x_48_6 + x_49_0 + x_49_1 + x_49_2 + x_49_3 + x_49_4 + x_49_5 + x_49_6 + x_50_0 + x_50_1 + x_50_2 + x_50_3 + x_50_4 + x_50_5 + x_50_6 + x_51_0 + x_51_1 + x_51_2 + x_51_3 + x_51_4 + x_51_5 + x_51_6 + x_52_0 + x_52_1 + x_52_2 + x_52_3 + x_52_4 + x_52_5 + x_52_6 + x_53_0 + x_53_1 + x_53_2 + x_53_3 + x_53_4 + x_53_5 + x_53_6 + x_54_0 + x_54_1 + x_54_2 + x_54_3 + x_54_4 + x_54_5 + x_54_6


Subject To

a0: x_0_0 + x_0_1 + x_0_2 + x_0_3 + x_0_4 + x_0_5 + x_0_6 + x_1_0 + x_1_1 + x_1_2 + x_1_3 + x_1_4 + x_1_5 + x_1_6 + x_2_0 + x_2_1 + x_2_2 + x_2_3 + x_2_4 + x_2_5 + x_2_6 + x_3_0 + x_3_1 + x_3_2 + x_3_3 + x_3_4 + x_3_5 + x_3_6 + x_4_0 + x_4_1 + x_4_2 + x_4_3 + x_4_4 + x_4_5 + x_4_6 + x_5_0 + x_5_1 + x_5_2 + x_5_3 + x_5_4 + x_5_5 + x_5_6 + x_6_0 + x_6_1 + x_6_2 + x_6_3 + x_6_4 + x_6_5 + x_6_6 + x_7_0 + x_7_1 + x_7_2 + x_7_3 + x_7_4 + x_7_5 + x_7_6 + x_8_0 + x_8_1 + x_8_2 + x_8_3 + x_8_4 + x_8_5 + x_8_6 + x_9_0 + x_9_1 + x_9_2 + x_9_3 + x_9_4 + x_9_5 + x_9_6 + x_10_0 + x_10_1 + x_10_2 + x_10_3 + x_10_4 + x_10_5 + x_10_6 + x_11_0 + x_11_1 + x_11_2 + x_11_3 + x_11_4 + x_11_5 + x_11_6 + x_12_0 + x_12_1 + x_12_2 + x_12_3 + x_12_4 + x_12_5 + x_12_6 + x_13_0 + x_13_1 + x_13_2 + x_13_3 + x_13_4 + x_13_5 + x_13_6 + x_14_0 + x_14_1 + x_14_2 + x_14_3 + x_14_4 + x_14_5 + x_14_6 + x_15_0 + x_15_1 + x_15_2 + x_15_3 + x_15_4 + x_15_5 + x_15_6 + x_16_0 + x_16_1 + x_16_2 + x_16_3 + x_16_4 + x_16_5 + x_16_6 + x_17_0 + x_17_1 + x_17_2 + x_17_3 + x_17_4 + x_17_5 + x_17_6 + x_18_0 + x_18_1 + x_18_2 + x_18_3 + x_18_4 + x_18_5 + x_18_6 + x_19_0 + x_19_1 + x_19_2 + x_19_3 + x_19_4 + x_19_5 + x_19_6 + x_20_0 + x_20_1 + x_20_2 + x_20_3 + x_20_4 + x_20_5 + x_20_6 + x_21_0 + x_21_1 + x_21_2 + x_21_3 + x_21_4 + x_21_5 + x_21_6 + x_22_0 + x_22_1 + x_22_2 + x_22_3 + x_22_4 + x_22_5 + x_22_6 + x_23_0 + x_23_1 + x_23_2 + x_23_3 + x_23_4 + x_23_5 + x_23_6 + x_24_0 + x_24_1 + x_24_2 + x_24_3 + x_24_4 + x_24_5 + x_24_6 + x_25_0 + x_25_1 + x_25_2 + x_25_3 + x_25_4 + x_25_5 + x_25_6 + x_26_0 + x_26_1 + x_26_2 + x_26_3 + x_26_4 + x_26_5 + x_26_6 + x_27_0 + x_27_1 + x_27_2 + x_27_3 + x_27_4 + x_27_5 + x_27_6 + x_28_0 + x_28_1 + x_28_2 + x_28_3 + x_28_4 + x_28_5 + x_28_6 + x_29_0 + x_29_1 + x_29_2 + x_29_3 + x_29_4 + x_29_5 + x_29_6 + x_30_0 + x_30_1 + x_30_2 + x_30_3 + x_30_4 + x_30_5 + x_30_6 + x_31_0 + x_31_1 + x_31_2 + x_31_3 + x_31_4 + x_31_5 + x_31_6 + x_32_0 + x_32_1 + x_32_2 + x_32_3 + x_32_4 + x_32_5 + x_32_6 + x_33_0 + x_33_1 + x_33_2 + x_33_3 + x_33_4 + x_33_5 + x_33_6 + x_34_0 + x_34_1 + x_34_2 + x_34_3 + x_34_4 + x_34_5 + x_34_6 + x_35_0 + x_35_1 + x_35_2 + x_35_3 + x_35_4 + x_35_5 + x_35_6 + x_36_0 + x_36_1 + x_36_2 + x_36_3 + x_36_4 + x_36_5 + x_36_6 + x_37_0 + x_37_1 + x_37_2 + x_37_3 + x_37_4 + x_37_5 + x_37_6 + x_38_0 + x_38_1 + x_38_2 + x_38_3 + x_38_4 + x_38_5 + x_38_6 + x_39_0 + x_39_1 + x_39_2 + x_39_3 + x_39_4 + x_39_5 + x_39_6 + x_40_0 + x_40_1 + x_40_2 + x_40_3 + x_40_4 + x_40_5 + x_40_6 + x_41_0 + x_41_1 + x_41_2 + x_41_3 + x_41_4 + x_41_5 + x_41_6 + x_42_0 + x_42_1 + x_42_2 + x_42_3 + x_42_4 + x_42_5 + x_42_6 + x_43_0 + x_43_1 + x_43_2 + x_43_3 + x_43_4 + x_43_5 + x_43_6 + x_44_0 + x_44_1 + x_44_2 + x_44_3 + x_44_4 + x_44_5 + x_44_6 + x_45_0 + x_45_1 + x_45_2 + x_45_3 + x_45_4 + x_45_5 + x_45_6 + x_46_0 + x_46_1 + x_46_2 + x_46_3 + x_46_4 + x_46_5 + x_46_6 + x_47_0 + x_47_1 + x_47_2 + x_47_3 + x_47_4 + x_47_5 + x_47_6 + x_48_0 + x_48_1 + x_48_2 + x_48_3 + x_48_4 + x_48_5 + x_48_6 + x_49_0 + x_49_1 + x_49_2 + x_49_3 + x_49_4 + x_49_5 + x_49_6 + x_50_0 + x_50_1 + x_50_2 + x_50_3 + x_50_4 + x_50_5 + x_50_6 + x_51_0 + x_51_1 + x_51_2 + x_51_3 + x_51_4 + x_51_5 + x_51_6 + x_52_0 + x_52_1 + x_52_2 + x_52_3 + x_52_4 + x_52_5 + x_52_6 + x_53_0 + x_53_1 + x_53_2 + x_53_3 + x_53_4 + x_53_5 + x_53_6 + x_54_0 + x_54_1 + x_54_2 + x_54_3 + x_54_4 + x_54_5 + x_54_6 = 55
b0: x_0_0 + x_1_0 + x_2_0 + x_3_0 + x_4_0 + x_5_0 + x_6_0 + x_7_0 + x_8_0 + x_9_0 + x_10_0 + x_11_0 + x_12_0 + x_13_0 + x_14_0 + x_15_0 + x_16_0 + x_17_0 + x_18_0 + x_19_0 + x_20_0 + x_21_0 + x_22_0 + x_23_0 + x_24_0 + x_25_0 + x_26_0 + x_27_0 + x_28_0 + x_29_0 + x_30_0 + x_31_0 + x_32_0 + x_33_0 + x_34_0 + x_35_0 + x_36_0 + x_37_0 + x_38_0 + x_39_0 + x_40_0 + x_41_0 + x_42_0 + x_43_0 + x_44_0 + x_45_0 + x_46_0 + x_47_0 + x_48_0 + x_49_0 + x_50_0 + x_51_0 + x_52_0 + x_53_0 + x_54_0 <= 55
b1: x_0_1 + x_1_1 + x_2_1 + x_3_1 + x_4_1 + x_5_1 + x_6_1 + x_7_1 + x_8_1 + x_9_1 + x_10_1 + x_11_1 + x_12_1 + x_13_1 + x_14_1 + x_15_1 + x_16_1 + x_17_1 + x_18_1 + x_19_1 + x_20_1 + x_21_1 + x_22_1 + x_23_1 + x_24_1 + x_25_1 + x_26_1 + x_27_1 + x_28_1 + x_29_1 + x_30_1 + x_31_1 + x_32_1 + x_33_1 + x_34_1 + x_35_1 + x_36_1 + x_37_1 + x_38_1 + x_39_1 + x_40_1 + x_41_1 + x_42_1 + x_43_1 + x_44_1 + x_45_1 + x_46_1 + x_47_1 + x_48_1 + x_49_1 + x_50_1 + x_51_1 + x_52_1 + x_53_1 + x_54_1 <= 55
b2: x_0_2 + x_1_2 + x_2_2 + x_3_2 + x_4_2 + x_5_2 + x_6_2 + x_7_2 + x_8_2 + x_9_2 + x_10_2 + x_11_2 + x_12_2 + x_13_2 + x_14_2 + x_15_2 + x_16_2 + x_17_2 + x_18_2 + x_19_2 + x_20_2 + x_21_2 + x_22_2 + x_23_2 + x_24_2 + x_25_2 + x_26_2 + x_27_2 + x_28_2 + x_29_2 + x_30_2 + x_31_2 + x_32_2 + x_33_2 + x_34_2 + x_35_2 + x_36_2 + x_37_2 + x_38_2 + x_39_2 + x_40_2 + x_41_2 + x_42_2 + x_43_2 + x_44_2 + x_45_2 + x_46_2 + x_47_2 + x_48_2 + x_49_2 + x_50_2 + x_51_2 + x_52_2 + x_53_2 + x_54_2 <= 55
b3: x_0_3 + x_1_3 + x_2_3 + x_3_3 + x_4_3 + x_5_3 + x_6_3 + x_7_3 + x_8_3 + x_9_3 + x_10_3 + x_11_3 + x_12_3 + x_13_3 + x_14_3 + x_15_3 + x_16_3 + x_17_3 + x_18_3 + x_19_3 + x_20_3 + x_21_3 + x_22_3 + x_23_3 + x_24_3 + x_25_3 + x_26_3 + x_27_3 + x_28_3 + x_29_3 + x_30_3 + x_31_3 + x_32_3 + x_33_3 + x_34_3 + x_35_3 + x_36_3 + x_37_3 + x_38_3 + x_39_3 + x_40_3 + x_41_3 + x_42_3 + x_43_3 + x_44_3 + x_45_3 + x_46_3 + x_47_3 + x_48_3 + x_49_3 + x_50_3 + x_51_3 + x_52_3 + x_53_3 + x_54_3 <= 55
b4: x_0_4 + x_1_4 + x_2_4 + x_3_4 + x_4_4 + x_5_4 + x_6_4 + x_7_4 + x_8_4 + x_9_4 + x_10_4 + x_11_4 + x_12_4 + x_13_4 + x_14_4 + x_15_4 + x_16_4 + x_17_4 + x_18_4 + x_19_4 + x_20_4 + x_21_4 + x_22_4 + x_23_4 + x_24_4 + x_25_4 + x_26_4 + x_27_4 + x_28_4 + x_29_4 + x_30_4 + x_31_4 + x_32_4 + x_33_4 + x_34_4 + x_35_4 + x_36_4 + x_37_4 + x_38_4 + x_39_4 + x_40_4 + x_41_4 + x_42_4 + x_43_4 + x_44_4 + x_45_4 + x_46_4 + x_47_4 + x_48_4 + x_49_4 + x_50_4 + x_51_4 + x_52_4 + x_53_4 + x_54_4 <= 55
b5: x_0_5 + x_1_5 + x_2_5 + x_3_5 + x_4_5 + x_5_5 + x_6_5 + x_7_5 + x_8_5 + x_9_5 + x_10_5 + x_11_5 + x_12_5 + x_13_5 + x_14_5 + x_15_5 + x_16_5 + x_17_5 + x_18_5 + x_19_5 + x_20_5 + x_21_5 + x_22_5 + x_23_5 + x_24_5 + x_25_5 + x_26_5 + x_27_5 + x_28_5 + x_29_5 + x_30_5 + x_31_5 + x_32_5 + x_33_5 + x_34_5 + x_35_5 + x_36_5 + x_37_5 + x_38_5 + x_39_5 + x_40_5 + x_41_5 + x_42_5 + x_43_5 + x_44_5 + x_45_5 + x_46_5 + x_47_5 + x_48_5 + x_49_5 + x_50_5 + x_51_5 + x_52_5 + x_53_5 + x_54_5 <= 55
b6: x_0_6 + x_1_6 + x_2_6 + x_3_6 + x_4_6 + x_5_6 + x_6_6 + x_7_6 + x_8_6 + x_9_6 + x_10_6 + x_11_6 + x_12_6 + x_13_6 + x_14_6 + x_15_6 + x_16_6 + x_17_6 + x_18_6 + x_19_6 + x_20_6 + x_21_6 + x_22_6 + x_23_6 + x_24_6 + x_25_6 + x_26_6 + x_27_6 + x_28_6 + x_29_6 + x_30_6 + x_31_6 + x_32_6 + x_33_6 + x_34_6 + x_35_6 + x_36_6 + x_37_6 + x_38_6 + x_39_6 + x_40_6 + x_41_6 + x_42_6 + x_43_6 + x_44_6 + x_45_6 + x_46_6 + x_47_6 + x_48_6 + x_49_6 + x_50_6 + x_51_6 + x_52_6 + x_53_6 + x_54_6 <= 55
c0: 20 x_0_0 + 19 x_1_0 + 18 x_2_0 + 17 x_3_0 + 16 x_4_0 + 15 x_5_0 + 14 x_6_0 + 13 x_7_0 + 12 x_8_0 + 11 x_9_0 + 10 x_10_0 + 9 x_11_0 + 8 x_12_0 + 7 x_13_0 + 6 x_14_0 + 20 x_15_0 + 19 x_16_0 + 18 x_17_0 + 17 x_18_0 + 16 x_19_0 + 15 x_20_0 + 14 x_21_0 + 13 x_22_0 + 12 x_23_0 + 11 x_24_0 + 10 x_25_0 + 9 x_26_0 + 8 x_27_0 + 7 x_28_0 + 6 x_29_0 + 20 x_30_0 + 19 x_31_0 + 18 x_32_0 + 17 x_33_0 + 16 x_34_0 + 15 x_35_0 + 14 x_36_0 + 13 x_37_0 + 12 x_38_0 + 11 x_39_0 + 10 x_40_0 + 9 x_41_0 + 8 x_42_0 + 7 x_43_0 + 6 x_44_0 + 25 x_45_0 + 24 x_46_0 + 23 x_47_0 + 22 x_48_0 + 21 x_49_0 + 20 x_50_0 + 19 x_51_0 + 18 x_52_0 + 17 x_53_0 + 16 x_54_0 < 80
c1: 20 x_0_1 + 19 x_1_1 + 18 x_2_1 + 17 x_3_1 + 16 x_4_1 + 15 x_5_1 + 14 x_6_1 + 13 x_7_1 + 12 x_8_1 + 11 x_9_1 + 10 x_10_1 + 9 x_11_1 + 8 x_12_1 + 7 x_13_1 + 6 x_14_1 + 20 x_15_1 + 19 x_16_1 + 18 x_17_1 + 17 x_18_1 + 16 x_19_1 + 15 x_20_1 + 14 x_21_1 + 13 x_22_1 + 12 x_23_1 + 11 x_24_1 + 10 x_25_1 + 9 x_26_1 + 8 x_27_1 + 7 x_28_1 + 6 x_29_1 + 20 x_30_1 + 19 x_31_1 + 18 x_32_1 + 17 x_33_1 + 16 x_34_1 + 15 x_35_1 + 14 x_36_1 + 13 x_37_1 + 12 x_38_1 + 11 x_39_1 + 10 x_40_1 + 9 x_41_1 + 8 x_42_1 + 7 x_43_1 + 6 x_44_1 + 25 x_45_1 + 24 x_46_1 + 23 x_47_1 + 22 x_48_1 + 21 x_49_1 + 20 x_50_1 + 19 x_51_1 + 18 x_52_1 + 17 x_53_1 + 16 x_54_1 < 60
c2: 20 x_0_2 + 19 x_1_2 + 18 x_2_2 + 17 x_3_2 + 16 x_4_2 + 15 x_5_2 + 14 x_6_2 + 13 x_7_2 + 12 x_8_2 + 11 x_9_2 + 10 x_10_2 + 9 x_11_2 + 8 x_12_2 + 7 x_13_2 + 6 x_14_2 + 20 x_15_2 + 19 x_16_2 + 18 x_17_2 + 17 x_18_2 + 16 x_19_2 + 15 x_20_2 + 14 x_21_2 + 13 x_22_2 + 12 x_23_2 + 11 x_24_2 + 10 x_25_2 + 9 x_26_2 + 8 x_27_2 + 7 x_28_2 + 6 x_29_2 + 20 x_30_2 + 19 x_31_2 + 18 x_32_2 + 17 x_33_2 + 16 x_34_2 + 15 x_35_2 + 14 x_36_2 + 13 x_37_2 + 12 x_38_2 + 11 x_39_2 + 10 x_40_2 + 9 x_41_2 + 8 x_42_2 + 7 x_43_2 + 6 x_44_2 + 25 x_45_2 + 24 x_46_2 + 23 x_47_2 + 22 x_48_2 + 21 x_49_2 + 20 x_50_2 + 19 x_51_2 + 18 x_52_2 + 17 x_53_2 + 16 x_54_2 < 80
c3: 20 x_0_3 + 19 x_1_3 + 18 x_2_3 + 17 x_3_3 + 16 x_4_3 + 15 x_5_3 + 14 x_6_3 + 13 x_7_3 + 12 x_8_3 + 11 x_9_3 + 10 x_10_3 + 9 x_11_3 + 8 x_12_3 + 7 x_13_3 + 6 x_14_3 + 20 x_15_3 + 19 x_16_3 + 18 x_17_3 + 17 x_18_3 + 16 x_19_3 + 15 x_20_3 + 14 x_21_3 + 13 x_22_3 + 12 x_23_3 + 11 x_24_3 + 10 x_25_3 + 9 x_26_3 + 8 x_27_3 + 7 x_28_3 + 6 x_29_3 + 20 x_30_3 + 19 x_31_3 + 18 x_32_3 + 17 x_33_3 + 16 x_34_3 + 15 x_35_3 + 14 x_36_3 + 13 x_37_3 + 12 x_38_3 + 11 x_39_3 + 10 x_40_3 + 9 x_41_3 + 8 x_42_3 + 7 x_43_3 + 6 x_44_3 + 25 x_45_3 + 24 x_46_3 + 23 x_47_3 + 22 x_48_3 + 21 x_49_3 + 20 x_50_3 + 19 x_51_3 + 18 x_52_3 + 17 x_53_3 + 16 x_54_3 < 60
c4: 20 x_0_4 + 19 x_1_4 + 18 x_2_4 + 17 x_3_4 + 16 x_4_4 + 15 x_5_4 + 14 x_6_4 + 13 x_7_4 + 12 x_8_4 + 11 x_9_4 + 10 x_10_4 + 9 x_11_4 + 8 x_12_4 + 7 x_13_4 + 6 x_14_4 + 20 x_15_4 + 19 x_16_4 + 18 x_17_4 + 17 x_18_4 + 16 x_19_4 + 15 x_20_4 + 14 x_21_4 + 13 x_22_4 + 12 x_23_4 + 11 x_24_4 + 10 x_25_4 + 9 x_26_4 + 8 x_27_4 + 7 x_28_4 + 6 x_29_4 + 20 x_30_4 + 19 x_31_4 + 18 x_32_4 + 17 x_33_4 + 16 x_34_4 + 15 x_35_4 + 14 x_36_4 + 13 x_37_4 + 12 x_38_4 + 11 x_39_4 + 10 x_40_4 + 9 x_41_4 + 8 x_42_4 + 7 x_43_4 + 6 x_44_4 + 25 x_45_4 + 24 x_46_4 + 23 x_47_4 + 22 x_48_4 + 21 x_49_4 + 20 x_50_4 + 19 x_51_4 + 18 x_52_4 + 17 x_53_4 + 16 x_54_4 < 50
c5: 20 x_0_5 + 19 x_1_5 + 18 x_2_5 + 17 x_3_5 + 16 x_4_5 + 15 x_5_5 + 14 x_6_5 + 13 x_7_5 + 12 x_8_5 + 11 x_9_5 + 10 x_10_5 + 9 x_11_5 + 8 x_12_5 + 7 x_13_5 + 6 x_14_5 + 20 x_15_5 + 19 x_16_5 + 18 x_17_5 + 17 x_18_5 + 16 x_19_5 + 15 x_20_5 + 14 x_21_5 + 13 x_22_5 + 12 x_23_5 + 11 x_24_5 + 10 x_25_5 + 9 x_26_5 + 8 x_27_5 + 7 x_28_5 + 6 x_29_5 + 20 x_30_5 + 19 x_31_5 + 18 x_32_5 + 17 x_33_5 + 16 x_34_5 + 15 x_35_5 + 14 x_36_5 + 13 x_37_5 + 12 x_38_5 + 11 x_39_5 + 10 x_40_5 + 9 x_41_5 + 8 x_42_5 + 7 x_43_5 + 6 x_44_5 + 25 x_45_5 + 24 x_46_5 + 23 x_47_5 + 22 x_48_5 + 21 x_49_5 + 20 x_50_5 + 19 x_51_5 + 18 x_52_5 + 17 x_53_5 + 16 x_54_5 < 70
c6: 20 x_0_6 + 19 x_1_6 + 18 x_2_6 + 17 x_3_6 + 16 x_4_6 + 15 x_5_6 + 14 x_6_6 + 13 x_7_6 + 12 x_8_6 + 11 x_9_6 + 10 x_10_6 + 9 x_11_6 + 8 x_12_6 + 7 x_13_6 + 6 x_14_6 + 20 x_15_6 + 19 x_16_6 + 18 x_17_6 + 17 x_18_6 + 16 x_19_6 + 15 x_20_6 + 14 x_21_6 + 13 x_22_6 + 12 x_23_6 + 11 x_24_6 + 10 x_25_6 + 9 x_26_6 + 8 x_27_6 + 7 x_28_6 + 6 x_29_6 + 20 x_30_6 + 19 x_31_6 + 18 x_32_6 + 17 x_33_6 + 16 x_34_6 + 15 x_35_6 + 14 x_36_6 + 13 x_37_6 + 12 x_38_6 + 11 x_39_6 + 10 x_40_6 + 9 x_41_6 + 8 x_42_6 + 7 x_43_6 + 6 x_44_6 + 25 x_45_6 + 24 x_46_6 + 23 x_47_6 + 22 x_48_6 + 21 x_49_6 + 20 x_50_6 + 19 x_51_6 + 18 x_52_6 + 17 x_53_6 + 16 x_54_6 < 40



Bounds


20 < 15
20 < 20
20 < 15
20 < 20
20 < 25
20 < 10
20 < 5
19 < 15
19 < 20
19 < 15
19 < 20
19 < 25
19 < 10
19 < 5
18 < 15
18 < 20
18 < 15
18 < 20
18 < 25
18 < 10
18 < 5
17 < 15
17 < 20
17 < 15
17 < 20
17 < 25
17 < 10
17 < 5
16 < 15
16 < 20
16 < 15
16 < 20
16 < 25
16 < 10
16 < 5
15 < 15
15 < 20
15 < 15
15 < 20
15 < 25
15 < 10
15 < 5
14 < 15
14 < 20
14 < 15
14 < 20
14 < 25
14 < 10
14 < 5
13 < 15
13 < 20
13 < 15
13 < 20
13 < 25
13 < 10
13 < 5
12 < 15
12 < 20
12 < 15
12 < 20
12 < 25
12 < 10
12 < 5
11 < 15
11 < 20
11 < 15
11 < 20
11 < 25
11 < 10
11 < 5
10 < 15
10 < 20
10 < 15
10 < 20
10 < 25
10 < 10
10 < 5
9 < 15
9 < 20
9 < 15
9 < 20
9 < 25
9 < 10
9 < 5
8 < 15
8 < 20
8 < 15
8 < 20
8 < 25
8 < 10
8 < 5
7 < 15
7 < 20
7 < 15
7 < 20
7 < 25
7 < 10
7 < 5
6 < 15
6 < 20
6 < 15
6 < 20
6 < 25
6 < 10
6 < 5
20 < 15
20 < 20
20 < 15
20 < 20
20 < 25
20 < 10
20 < 5
19 < 15
19 < 20
19 < 15
19 < 20
19 < 25
19 < 10
19 < 5
18 < 15
18 < 20
18 < 15
18 < 20
18 < 25
18 < 10
18 < 5
17 < 15
17 < 20
17 < 15
17 < 20
17 < 25
17 < 10
17 < 5
16 < 15
16 < 20
16 < 15
16 < 20
16 < 25
16 < 10
16 < 5
15 < 15
15 < 20
15 < 15
15 < 20
15 < 25
15 < 10
15 < 5
14 < 15
14 < 20
14 < 15
14 < 20
14 < 25
14 < 10
14 < 5
13 < 15
13 < 20
13 < 15
13 < 20
13 < 25
13 < 10
13 < 5
12 < 15
12 < 20
12 < 15
12 < 20
12 < 25
12 < 10
12 < 5
11 < 15
11 < 20
11 < 15
11 < 20
11 < 25
11 < 10
11 < 5
10 < 15
10 < 20
10 < 15
10 < 20
10 < 25
10 < 10
10 < 5
9 < 15
9 < 20
9 < 15
9 < 20
9 < 25
9 < 10
9 < 5
8 < 15
8 < 20
8 < 15
8 < 20
8 < 25
8 < 10
8 < 5
7 < 15
7 < 20
7 < 15
7 < 20
7 < 25
7 < 10
7 < 5
6 < 15
6 < 20
6 < 15
6 < 20
6 < 25
6 < 10
6 < 5
20 < 15
20 < 20
20 < 15
20 < 20
20 < 25
20 < 10
20 < 5
19 < 15
19 < 20
19 < 15
19 < 20
19 < 25
19 < 10
19 < 5
18 < 15
18 < 20
18 < 15
18 < 20
18 < 25
18 < 10
18 < 5
17 < 15
17 < 20
17 < 15
17 < 20
17 < 25
17 < 10
17 < 5
16 < 15
16 < 20
16 < 15
16 < 20
16 < 25
16 < 10
16 < 5
15 < 15
15 < 20
15 < 15
15 < 20
15 < 25
15 < 10
15 < 5
14 < 15
14 < 20
14 < 15
14 < 20
14 < 25
14 < 10
14 < 5
13 < 15
13 < 20
13 < 15
13 < 20
13 < 25
13 < 10
13 < 5
12 < 15
12 < 20
12 < 15
12 < 20
12 < 25
12 < 10
12 < 5
11 < 15
11 < 20
11 < 15
11 < 20
11 < 25
11 < 10
11 < 5
10 < 15
10 < 20
10 < 15
10 < 20
10 < 25
10 < 10
10 < 5
9 < 15
9 < 20
9 < 15
9 < 20
9 < 25
9 < 10
9 < 5
8 < 15
8 < 20
8 < 15
8 < 20
8 < 25
8 < 10
8 < 5
7 < 15
7 < 20
7 < 15
7 < 20
7 < 25
7 < 10
7 < 5
6 < 15
6 < 20
6 < 15
6 < 20
6 < 25
6 < 10
6 < 5
25 < 15
25 < 20
25 < 15
25 < 20
25 < 25
25 < 10
25 < 5
24 < 15
24 < 20
24 < 15
24 < 20
24 < 25
24 < 10
24 < 5
23 < 15
23 < 20
23 < 15
23 < 20
23 < 25
23 < 10
23 < 5
22 < 15
22 < 20
22 < 15
22 < 20
22 < 25
22 < 10
22 < 5
21 < 15
21 < 20
21 < 15
21 < 20
21 < 25
21 < 10
21 < 5
20 < 15
20 < 20
20 < 15
20 < 20
20 < 25
20 < 10
20 < 5
19 < 15
19 < 20
19 < 15
19 < 20
19 < 25
19 < 10
19 < 5
18 < 15
18 < 20
18 < 15
18 < 20
18 < 25
18 < 10
18 < 5
17 < 15
17 < 20
17 < 15
17 < 20
17 < 25
17 < 10
17 < 5
16 < 15
16 < 20
16 < 15
16 < 20
16 < 25
16 < 10
16 < 5



Binary

x_0_0 x_0_1 x_0_2 x_0_3 x_0_4 x_0_5 x_0_6 x_1_0 x_1_1 x_1_2 x_1_3 x_1_4 x_1_5 x_1_6 x_2_0 x_2_1 x_2_2 x_2_3 x_2_4 x_2_5 x_2_6 x_3_0 x_3_1 x_3_2 x_3_3 x_3_4 x_3_5 x_3_6 x_4_0 x_4_1 x_4_2 x_4_3 x_4_4 x_4_5 x_4_6 x_5_0 x_5_1 x_5_2 x_5_3 x_5_4 x_5_5 x_5_6 x_6_0 x_6_1 x_6_2 x_6_3 x_6_4 x_6_5 x_6_6 x_7_0 x_7_1 x_7_2 x_7_3 x_7_4 x_7_5 x_7_6 x_8_0 x_8_1 x_8_2 x_8_3 x_8_4 x_8_5 x_8_6 x_9_0 x_9_1 x_9_2 x_9_3 x_9_4 x_9_5 x_9_6 x_10_0 x_10_1 x_10_2 x_10_3 x_10_4 x_10_5 x_10_6 x_11_0 x_11_1 x_11_2 x_11_3 x_11_4 x_11_5 x_11_6 x_12_0 x_12_1 x_12_2 x_12_3 x_12_4 x_12_5 x_12_6 x_13_0 x_13_1 x_13_2 x_13_3 x_13_4 x_13_5 x_13_6 x_14_0 x_14_1 x_14_2 x_14_3 x_14_4 x_14_5 x_14_6 x_15_0 x_15_1 x_15_2 x_15_3 x_15_4 x_15_5 x_15_6 x_16_0 x_16_1 x_16_2 x_16_3 x_16_4 x_16_5 x_16_6 x_17_0 x_17_1 x_17_2 x_17_3 x_17_4 x_17_5 x_17_6 x_18_0 x_18_1 x_18_2 x_18_3 x_18_4 x_18_5 x_18_6 x_19_0 x_19_1 x_19_2 x_19_3 x_19_4 x_19_5 x_19_6 x_20_0 x_20_1 x_20_2 x_20_3 x_20_4 x_20_5 x_20_6 x_21_0 x_21_1 x_21_2 x_21_3 x_21_4 x_21_5 x_21_6 x_22_0 x_22_1 x_22_2 x_22_3 x_22_4 x_22_5 x_22_6 x_23_0 x_23_1 x_23_2 x_23_3 x_23_4 x_23_5 x_23_6 x_24_0 x_24_1 x_24_2 x_24_3 x_24_4 x_24_5 x_24_6 x_25_0 x_25_1 x_25_2 x_25_3 x_25_4 x_25_5 x_25_6 x_26_0 x_26_1 x_26_2 x_26_3 x_26_4 x_26_5 x_26_6 x_27_0 x_27_1 x_27_2 x_27_3 x_27_4 x_27_5 x_27_6 x_28_0 x_28_1 x_28_2 x_28_3 x_28_4 x_28_5 x_28_6 x_29_0 x_29_1 x_29_2 x_29_3 x_29_4 x_29_5 x_29_6 x_30_0 x_30_1 x_30_2 x_30_3 x_30_4 x_30_5 x_30_6 x_31_0 x_31_1 x_31_2 x_31_3 x_31_4 x_31_5 x_31_6 x_32_0 x_32_1 x_32_2 x_32_3 x_32_4 x_32_5 x_32_6 x_33_0 x_33_1 x_33_2 x_33_3 x_33_4 x_33_5 x_33_6 x_34_0 x_34_1 x_34_2 x_34_3 x_34_4 x_34_5 x_34_6 x_35_0 x_35_1 x_35_2 x_35_3 x_35_4 x_35_5 x_35_6 x_36_0 x_36_1 x_36_2 x_36_3 x_36_4 x_36_5 x_36_6 x_37_0 x_37_1 x_37_2 x_37_3 x_37_4 x_37_5 x_37_6 x_38_0 x_38_1 x_38_2 x_38_3 x_38_4 x_38_5 x_38_6 x_39_0 x_39_1 x_39_2 x_39_3 x_39_4 x_39_5 x_39_6 x_40_0 x_40_1 x_40_2 x_40_3 x_40_4 x_40_5 x_40_6 x_41_0 x_41_1 x_41_2 x_41_3 x_41_4 x_41_5 x_41_6 x_42_0 x_42_1 x_42_2 x_42_3 x_42_4 x_42_5 x_42_6 x_43_0 x_43_1 x_43_2 x_43_3 x_43_4 x_43_5 x_43_6 x_44_0 x_44_1 x_44_2 x_44_3 x_44_4 x_44_5 x_44_6 x_45_0 x_45_1 x_45_2 x_45_3 x_45_4 x_45_5 x_45_6 x_46_0 x_46_1 x_46_2 x_46_3 x_46_4 x_46_5 x_46_6 x_47_0 x_47_1 x_47_2 x_47_3 x_47_4 x_47_5 x_47_6 x_48_0 x_48_1 x_48_2 x_48_3 x_48_4 x_48_5 x_48_6 x_49_0 x_49_1 x_49_2 x_49_3 x_49_4 x_49_5 x_49_6 x_50_0 x_50_1 x_50_2 x_50_3 x_50_4 x_50_5 x_50_6 x_51_0 x_51_1 x_51_2 x_51_3 x_51_4 x_51_5 x_51_6 x_52_0 x_52_1 x_52_2 x_52_3 x_52_4 x_52_5 x_52_6 x_53_0 x_53_1 x_53_2 x_53_3 x_53_4 x_53_5 x_53_6 x_54_0 x_54_1 x_54_2 x_54_3 x_54_4 x_54_5 x_54_6

 


End
